15 45 42 62 90 38 76 22 
72 53 64 81 34 60 83 14 77 29 
82 23 18 
49 74 13 89 70 85 21 43 51 
79 16 56 91 71 
8 88 1 25 47 75 
52 32 
86 9 46 37 
57 95 39 
84 41 63 20 80 48 
50 59 40 
30 69 
97 5 87 98 35 55 93 19 96 7 24 73 
26 3 
31 66 68 
44 
33 27 36 11 92 65 78 6 99 67 94 10 2 17 4 12 28 58 54 100 61 

